c File: data_files/evolved_graphs/g3682.col
c
c Auto generated graph
c
p edge 100 1049
e 1 2
e 1 3
e 1 5
e 1 9
e 1 19
e 1 23
e 1 28
e 1 32
e 1 41
e 1 50
e 1 59
e 1 60
e 1 62
e 1 64
e 1 65
e 1 68
e 1 69
e 1 70
e 1 71
e 1 72
e 1 74
e 1 84
e 1 92
e 1 94
e 1 95
e 1 100
e 2 4
e 2 5
e 2 11
e 2 15
e 2 16
e 2 24
e 2 26
e 2 33
e 2 39
e 2 54
e 2 59
e 2 60
e 2 64
e 2 65
e 2 66
e 2 67
e 2 69
e 2 70
e 2 71
e 2 73
e 2 74
e 2 79
e 2 94
e 3 4
e 3 8
e 3 14
e 3 15
e 3 17
e 3 19
e 3 25
e 3 32
e 3 34
e 3 39
e 3 41
e 3 43
e 3 62
e 3 63
e 3 65
e 3 66
e 3 67
e 3 68
e 3 71
e 3 74
e 4 7
e 4 8
e 4 9
e 4 12
e 4 16
e 4 18
e 4 25
e 4 26
e 4 31
e 4 57
e 4 60
e 4 61
e 4 62
e 4 63
e 4 64
e 4 66
e 4 68
e 4 70
e 4 71
e 4 73
e 4 74
e 4 79
e 4 81
e 5 10
e 5 13
e 5 17
e 5 25
e 5 38
e 5 49
e 5 53
e 5 59
e 5 61
e 5 62
e 5 66
e 5 67
e 5 68
e 5 69
e 5 70
e 5 72
e 5 78
e 6 9
e 6 13
e 6 14
e 6 18
e 6 24
e 6 25
e 6 27
e 6 32
e 6 44
e 6 52
e 6 56
e 6 57
e 6 59
e 6 61
e 6 63
e 6 64
e 6 65
e 6 66
e 6 67
e 6 70
e 6 71
e 6 73
e 6 74
e 6 86
e 6 88
e 7 10
e 7 11
e 7 15
e 7 16
e 7 17
e 7 24
e 7 29
e 7 31
e 7 32
e 7 42
e 7 57
e 7 59
e 7 60
e 7 70
e 7 71
e 7 72
e 7 74
e 7 91
e 8 10
e 8 14
e 8 16
e 8 18
e 8 20
e 8 27
e 8 38
e 8 42
e 8 51
e 8 58
e 8 60
e 8 62
e 8 63
e 8 64
e 8 66
e 8 67
e 8 68
e 8 70
e 8 74
e 9 15
e 9 23
e 9 24
e 9 25
e 9 26
e 9 27
e 9 29
e 9 30
e 9 36
e 9 48
e 9 52
e 9 55
e 9 59
e 9 61
e 9 62
e 9 63
e 9 64
e 9 65
e 9 67
e 9 68
e 9 69
e 9 70
e 9 72
e 9 73
e 9 74
e 9 91
e 10 16
e 10 23
e 10 33
e 10 35
e 10 44
e 10 45
e 10 53
e 10 58
e 10 60
e 10 61
e 10 62
e 10 63
e 10 64
e 10 65
e 10 69
e 10 72
e 10 73
e 10 74
e 10 81
e 11 22
e 11 26
e 11 28
e 11 37
e 11 38
e 11 47
e 11 51
e 11 60
e 11 62
e 11 64
e 11 66
e 11 67
e 11 71
e 11 72
e 11 73
e 11 75
e 11 91
e 12 13
e 12 14
e 12 18
e 12 24
e 12 38
e 12 40
e 12 49
e 12 50
e 12 54
e 12 59
e 12 60
e 12 62
e 12 64
e 12 65
e 12 66
e 12 71
e 12 72
e 12 74
e 12 75
e 12 100
e 13 14
e 13 16
e 13 19
e 13 22
e 13 23
e 13 24
e 13 30
e 13 33
e 13 50
e 13 60
e 13 62
e 13 65
e 13 66
e 13 67
e 13 68
e 13 71
e 13 72
e 13 74
e 13 95
e 13 98
e 14 15
e 14 18
e 14 19
e 14 21
e 14 22
e 14 25
e 14 26
e 14 27
e 14 34
e 14 35
e 14 47
e 14 49
e 14 55
e 14 58
e 14 59
e 14 60
e 14 65
e 14 66
e 14 71
e 14 72
e 14 73
e 14 74
e 14 88
e 14 92
e 15 17
e 15 19
e 15 20
e 15 25
e 15 28
e 15 32
e 15 33
e 15 36
e 15 39
e 15 41
e 15 44
e 15 45
e 15 49
e 15 50
e 15 56
e 15 60
e 15 61
e 15 62
e 15 63
e 15 65
e 15 66
e 15 67
e 15 68
e 15 69
e 15 71
e 15 72
e 15 73
e 15 74
e 15 84
e 16 19
e 16 25
e 16 30
e 16 47
e 16 52
e 16 62
e 16 63
e 16 65
e 16 69
e 16 71
e 16 72
e 16 73
e 17 21
e 17 24
e 17 27
e 17 30
e 17 38
e 17 53
e 17 59
e 17 61
e 17 62
e 17 65
e 17 69
e 17 71
e 17 73
e 17 77
e 17 85
e 17 87
e 18 21
e 18 24
e 18 26
e 18 40
e 18 43
e 18 44
e 18 50
e 18 61
e 18 62
e 18 64
e 18 67
e 18 68
e 18 69
e 19 32
e 19 36
e 19 38
e 19 59
e 19 60
e 19 61
e 19 64
e 19 65
e 19 66
e 19 68
e 19 69
e 19 70
e 19 72
e 19 73
e 19 74
e 19 89
e 20 21
e 20 22
e 20 25
e 20 31
e 20 33
e 20 45
e 20 51
e 20 53
e 20 59
e 20 60
e 20 62
e 20 63
e 20 64
e 20 66
e 20 68
e 20 70
e 20 72
e 20 74
e 21 37
e 21 38
e 21 39
e 21 43
e 21 50
e 21 60
e 21 61
e 21 62
e 21 65
e 21 67
e 21 69
e 21 70
e 21 72
e 21 74
e 21 90
e 21 93
e 22 23
e 22 25
e 22 27
e 22 30
e 22 33
e 22 40
e 22 58
e 22 61
e 22 64
e 22 65
e 22 66
e 22 67
e 22 69
e 22 71
e 22 73
e 23 27
e 23 29
e 23 36
e 23 37
e 23 41
e 23 46
e 23 47
e 23 54
e 23 56
e 23 57
e 23 58
e 23 60
e 23 62
e 23 66
e 23 68
e 23 69
e 23 70
e 23 71
e 23 74
e 23 86
e 23 91
e 23 94
e 24 28
e 24 34
e 24 39
e 24 41
e 24 43
e 24 47
e 24 57
e 24 58
e 24 60
e 24 61
e 24 62
e 24 64
e 24 65
e 24 70
e 24 71
e 24 96
e 25 28
e 25 29
e 25 36
e 25 43
e 25 51
e 25 53
e 25 57
e 25 60
e 25 65
e 25 68
e 25 69
e 25 70
e 25 72
e 25 74
e 26 27
e 26 34
e 26 35
e 26 36
e 26 39
e 26 49
e 26 51
e 26 56
e 26 59
e 26 60
e 26 61
e 26 62
e 26 68
e 26 69
e 26 71
e 26 74
e 26 97
e 27 29
e 27 36
e 27 38
e 27 40
e 27 47
e 27 49
e 27 62
e 27 63
e 27 64
e 27 65
e 27 66
e 27 69
e 27 73
e 27 95
e 28 30
e 28 35
e 28 38
e 28 41
e 28 54
e 28 55
e 28 61
e 28 63
e 28 64
e 28 65
e 28 66
e 28 67
e 28 71
e 28 72
e 28 74
e 28 85
e 28 99
e 29 33
e 29 36
e 29 38
e 29 49
e 29 52
e 29 54
e 29 59
e 29 61
e 29 62
e 29 63
e 29 66
e 29 70
e 29 71
e 29 73
e 30 31
e 30 34
e 30 39
e 30 41
e 30 44
e 30 59
e 30 60
e 30 62
e 30 63
e 30 64
e 30 65
e 30 66
e 30 68
e 30 70
e 30 73
e 30 74
e 30 87
e 30 91
e 30 97
e 31 32
e 31 36
e 31 39
e 31 50
e 31 55
e 31 56
e 31 57
e 31 59
e 31 61
e 31 63
e 31 67
e 31 68
e 31 69
e 31 70
e 31 72
e 31 73
e 31 81
e 32 33
e 32 34
e 32 37
e 32 40
e 32 41
e 32 42
e 32 43
e 32 46
e 32 51
e 32 61
e 32 62
e 32 68
e 32 73
e 32 76
e 32 85
e 32 97
e 33 34
e 33 37
e 33 38
e 33 39
e 33 41
e 33 42
e 33 43
e 33 46
e 33 48
e 33 55
e 33 56
e 33 60
e 33 64
e 33 68
e 33 70
e 33 71
e 33 72
e 33 86
e 33 95
e 33 97
e 34 35
e 34 37
e 34 38
e 34 40
e 34 46
e 34 47
e 34 49
e 34 50
e 34 54
e 34 59
e 34 60
e 34 75
e 34 92
e 34 100
e 35 40
e 35 53
e 35 55
e 35 56
e 35 63
e 35 64
e 35 66
e 35 68
e 35 73
e 35 83
e 35 87
e 35 97
e 36 45
e 36 47
e 36 50
e 36 52
e 36 57
e 36 60
e 36 64
e 36 66
e 36 69
e 36 70
e 36 71
e 36 72
e 36 73
e 36 75
e 36 77
e 37 39
e 37 40
e 37 43
e 37 44
e 37 46
e 37 50
e 37 52
e 37 53
e 37 60
e 37 61
e 37 65
e 37 66
e 37 73
e 37 74
e 37 76
e 37 92
e 38 46
e 38 53
e 38 57
e 38 59
e 38 61
e 38 65
e 38 67
e 38 69
e 38 76
e 38 85
e 38 88
e 38 90
e 38 93
e 38 99
e 39 40
e 39 41
e 39 43
e 39 54
e 39 59
e 39 62
e 39 64
e 39 65
e 39 69
e 39 73
e 39 77
e 39 90
e 39 92
e 39 95
e 40 41
e 40 42
e 40 43
e 40 45
e 40 50
e 40 56
e 40 60
e 40 65
e 40 69
e 40 71
e 40 73
e 40 77
e 40 97
e 40 98
e 41 50
e 41 52
e 41 56
e 41 57
e 41 58
e 41 60
e 41 69
e 41 76
e 41 85
e 41 88
e 41 96
e 42 51
e 42 52
e 42 59
e 42 72
e 42 73
e 42 74
e 42 75
e 42 76
e 42 83
e 42 88
e 42 89
e 43 45
e 43 47
e 43 52
e 43 53
e 43 55
e 43 59
e 43 60
e 43 63
e 43 68
e 43 69
e 43 72
e 43 76
e 43 80
e 43 94
e 44 45
e 44 54
e 44 59
e 44 68
e 44 71
e 44 76
e 44 77
e 44 78
e 44 88
e 44 91
e 44 95
e 44 98
e 44 99
e 45 56
e 45 57
e 45 61
e 45 62
e 45 68
e 45 77
e 45 86
e 46 50
e 46 51
e 46 61
e 46 68
e 46 69
e 46 71
e 46 77
e 46 81
e 46 86
e 46 92
e 47 48
e 47 54
e 47 60
e 47 76
e 47 81
e 48 49
e 48 50
e 48 53
e 48 65
e 48 67
e 48 74
e 48 81
e 48 97
e 49 53
e 49 56
e 49 57
e 49 60
e 49 63
e 49 67
e 49 68
e 49 69
e 49 74
e 49 82
e 49 98
e 50 63
e 50 68
e 50 71
e 50 75
e 50 77
e 50 81
e 50 88
e 50 96
e 50 99
e 51 52
e 51 62
e 51 68
e 51 69
e 51 70
e 51 71
e 51 72
e 51 78
e 51 85
e 52 53
e 52 54
e 52 56
e 52 65
e 52 67
e 52 71
e 52 72
e 52 76
e 52 77
e 52 80
e 52 88
e 53 60
e 53 62
e 53 75
e 53 87
e 53 94
e 54 57
e 54 61
e 54 63
e 54 65
e 54 66
e 54 70
e 54 71
e 54 90
e 55 57
e 55 58
e 55 67
e 55 71
e 55 74
e 55 75
e 55 82
e 55 92
e 56 59
e 56 60
e 56 64
e 56 75
e 56 90
e 56 96
e 57 58
e 57 62
e 57 63
e 57 67
e 57 68
e 57 71
e 57 73
e 57 84
e 57 95
e 57 97
e 57 100
e 58 61
e 58 70
e 58 71
e 58 74
e 58 76
e 58 83
e 59 60
e 59 64
e 59 65
e 59 67
e 59 69
e 59 73
e 59 75
e 59 77
e 59 98
e 60 61
e 60 64
e 60 65
e 60 69
e 60 75
e 60 77
e 60 81
e 60 83
e 60 85
e 60 97
e 60 99
e 61 68
e 61 73
e 61 74
e 61 75
e 61 76
e 61 80
e 61 91
e 61 96
e 62 63
e 62 68
e 62 71
e 62 74
e 62 76
e 62 77
e 62 84
e 62 86
e 62 94
e 63 66
e 63 71
e 63 78
e 63 91
e 63 94
e 64 67
e 64 72
e 64 73
e 64 74
e 64 75
e 64 76
e 64 77
e 64 93
e 65 77
e 65 80
e 65 88
e 66 67
e 66 69
e 66 71
e 66 72
e 66 91
e 66 99
e 67 68
e 67 72
e 67 76
e 67 77
e 67 92
e 67 95
e 68 70
e 68 74
e 68 78
e 68 92
e 68 95
e 68 97
e 69 92
e 70 72
e 70 73
e 70 79
e 70 85
e 70 91
e 70 97
e 71 75
e 71 94
e 71 95
e 71 97
e 71 99
e 72 73
e 72 75
e 72 76
e 72 77
e 72 81
e 72 85
e 73 74
e 73 77
e 73 82
e 73 94
e 73 96
e 73 98
e 74 76
e 74 81
e 74 97
e 75 78
e 75 95
e 76 77
e 76 93
e 78 81
e 78 84
e 78 92
e 78 93
e 78 99
e 79 80
e 79 93
e 79 97
e 80 85
e 80 87
e 81 86
e 81 88
e 81 90
e 81 93
e 81 95
e 81 96
e 82 83
e 82 84
e 82 85
e 82 87
e 82 88
e 82 91
e 82 92
e 82 98
e 83 88
e 83 93
e 83 98
e 83 99
e 84 88
e 84 89
e 84 91
e 84 94
e 84 99
e 85 87
e 85 88
e 85 89
e 85 90
e 85 98
e 85 100
e 86 87
e 86 90
e 86 93
e 86 96
e 86 97
e 87 89
e 87 91
e 87 95
e 88 92
e 88 93
e 88 96
e 89 97
e 89 98
e 90 94
e 90 96
e 90 98
e 91 94
e 91 97
e 92 95
e 92 96
e 92 100
e 93 99
e 93 100
e 94 97
e 95 96
e 95 97
e 98 99
e 98 100
